proyfinal/src/viki/013/experimentInOfficeAgust.take6.output/6884d878-659c-449c-8b80-58c9a24f032d.als.dat
{'cnf.clauses': '118081',
 'cnf.totvars': '69608',
 'conflict literals': '2661',
 'conflicts': '256',
 'decisions': '9458',
 'memused.mb': '15.89',
 'outcome': 'UNSAT',
 'propagations': '312256',
 'restarts': '3',
 'solver.msecs': 43,
 'task.msecs': 92}
