proyfinal/src/viki/013/experimentInOfficeAgust.take6.output/6884d878-659c-449c-8b80-58c9a24f032d.als.out
Reading from standard input... Use '--help' for help.
============================[ Problem Statistics ]=============================
|                                                                             |
|  Number of variables:         69608                                         |
|  Number of clauses:          118081                                         |
|  Parse time:                   0.02 s                                       |
|                                                                             |
============================[ Search Statistics ]==============================
| Conflicts |          ORIGINAL         |          LEARNT          | Progress |
|           |    Vars  Clauses Literals |    Limit  Clauses Lit/Cl |          |
===============================================================================
|       100 |   57919    88855   219611 |    32580       91      9 | 16.793 % |
|       250 |   57904    84520   209197 |    35838      212     12 | 16.814 % |
===============================================================================
restarts              : 3
conflicts             : 256            (5944 /sec)
decisions             : 9458           (0.00 % random) (219616 /sec)
propagations          : 312256         (7250639 /sec)
conflict literals     : 2661           (26.45 % deleted)
Memory used           : 15.89 MB
CPU time              : 0.043066 s

UNSATISFIABLE
